setgridsize(256, 256, 1)
setcellsize(2e-9, 2e-9, 1e-9)
setgeom(rect(400e-9, 400e-9))

msat    = 600e3
aex     = 10e-12
m       = vortex(1, 1)

relax()
save(m)

MFMLift = 10e-9
saveas(MFM, "lift_10nm")

MFMLift = 40e-9
saveas(MFM, "lift_40nm")

MFMLift = 90e-9
saveas(MFM, "lift_90nm")